12
48
1102
973
1265
905
956
1202
1156
1249
1116
856
1159
879
58	197
385	92
104	578
865	504
470	169
464	234
51	153
777	400
89	26
571	719
662	799
183	183
769	732
524	900
1000	898
558	233
956	209
607	264
59	894
437	949
298	909
800	460
802	593
199	448
111	241
878	126
965	725
444	280
532	874
507	342
721	601
832	322
313	975
324	883
956	401
575	221
591	550
915	167
821	785
583	405
776	567
992	854
237	150
382	793
15	487
855	764
162	821
461	925
